10
0	798	341	652	897	106	311	986	122	195	
798	0	63	903	879	609	685	568	481	58	
341	63	0	601	933	551	910	471	976	269	
652	903	601	0	148	230	934	133	812	793	
897	879	933	148	0	99	670	14	262	91	
106	609	551	230	99	0	722	507	157	846	
311	685	910	934	670	722	0	116	611	355	
986	568	471	133	14	507	116	0	475	481	
122	481	976	812	262	157	611	475	0	86	
195	58	269	793	91	846	355	481	86	0	
